p edge 160 480
e 1 31
e 1 53
e 1 129
e 2 52
e 2 71
e 2 76
e 3 16
e 3 73
e 3 110
e 4 9
e 4 131
e 4 133
e 5 54
e 5 69
e 5 108
e 6 49
e 6 64
e 6 157
e 7 22
e 7 98
e 7 128
e 8 27
e 8 84
e 8 154
e 9 30
e 9 51
e 9 88
e 10 17
e 10 44
e 10 120
e 11 105
e 11 129
e 11 145
e 12 8
e 12 96
e 12 159
e 13 36
e 13 86
e 13 150
e 14 32
e 14 40
e 14 104
e 15 35
e 15 154
e 15 160
e 16 65
e 16 72
e 16 84
e 17 47
e 17 154
e 17 156
e 18 8
e 18 52
e 18 67
e 19 11
e 19 49
e 19 140
e 20 7
e 20 69
e 20 111
e 21 106
e 21 120
e 21 149
e 22 14
e 22 87
e 22 109
e 23 43
e 23 98
e 23 108
e 24 32
e 24 72
e 24 80
e 25 28
e 25 57
e 25 123
e 26 41
e 26 80
e 26 120
e 27 91
e 27 127
e 27 149
e 28 17
e 28 50
e 28 136
e 29 34
e 29 40
e 29 69
e 30 41
e 30 101
e 30 152
e 31 13
e 31 64
e 31 65
e 32 5
e 32 59
e 32 135
e 33 12
e 33 91
e 33 97
e 34 125
e 34 128
e 34 133
e 35 24
e 35 65
e 35 101
e 36 46
e 36 83
e 36 143
e 37 54
e 37 67
e 37 129
e 38 63
e 38 69
e 38 96
e 39 11
e 39 66
e 39 148
e 40 39
e 40 119
e 40 122
e 41 2
e 41 30
e 41 143
e 42 2
e 42 73
e 42 79
e 43 9
e 43 18
e 43 29
e 44 21
e 44 62
e 44 121
e 45 48
e 45 113
e 45 148
e 46 2
e 46 113
e 46 156
e 47 39
e 47 48
e 47 118
e 48 11
e 48 100
e 48 138
e 49 7
e 49 82
e 49 153
e 50 42
e 50 105
e 50 110
e 51 64
e 51 71
e 51 94
e 52 117
e 52 119
e 52 156
e 53 27
e 53 32
e 53 103
e 54 123
e 54 129
e 54 137
e 55 1
e 55 47
e 55 56
e 56 29
e 56 61
e 56 90
e 57 63
e 57 90
e 57 123
e 58 91
e 58 113
e 58 133
e 59 16
e 59 94
e 59 132
e 60 24
e 60 51
e 60 158
e 61 58
e 61 78
e 61 89
e 62 35
e 62 125
e 62 143
e 63 45
e 63 128
e 63 141
e 64 33
e 64 49
e 64 134
e 65 83
e 65 115
e 65 140
e 66 26
e 66 26
e 66 127
e 67 18
e 67 38
e 67 144
e 68 21
e 68 82
e 68 125
e 69 24
e 69 43
e 69 144
e 70 1
e 70 50
e 70 121
e 71 12
e 71 16
e 71 86
e 72 21
e 72 78
e 72 147
e 73 71
e 73 134
e 73 153
e 74 40
e 74 123
e 74 137
e 75 64
e 75 78
e 75 118
e 76 35
e 76 60
e 76 66
e 77 30
e 77 94
e 77 153
e 78 31
e 78 116
e 78 120
e 79 11
e 79 36
e 79 82
e 80 14
e 80 40
e 80 93
e 81 65
e 81 111
e 81 150
e 82 40
e 82 102
e 82 118
e 83 11
e 83 81
e 83 104
e 84 26
e 84 121
e 84 155
e 85 15
e 85 26
e 85 42
e 86 73
e 86 107
e 86 115
e 87 53
e 87 129
e 87 135
e 88 23
e 88 59
e 88 73
e 89 29
e 89 62
e 89 159
e 90 35
e 90 88
e 90 117
e 91 126
e 91 154
e 91 157
e 92 23
e 92 64
e 92 149
e 93 60
e 93 74
e 93 86
e 94 70
e 94 87
e 94 108
e 95 20
e 95 96
e 95 121
e 96 2
e 96 37
e 96 143
e 97 84
e 97 144
e 97 152
e 98 10
e 98 36
e 98 54
e 99 14
e 99 34
e 99 122
e 100 30
e 100 59
e 100 146
e 101 16
e 101 19
e 101 87
e 102 121
e 102 131
e 102 140
e 103 25
e 103 99
e 103 150
e 104 70
e 104 93
e 104 149
e 105 5
e 105 87
e 105 104
e 106 65
e 106 115
e 106 137
e 107 58
e 107 102
e 107 159
e 108 1
e 108 104
e 108 130
e 109 62
e 109 83
e 109 116
e 110 70
e 110 92
e 110 109
e 111 34
e 111 102
e 111 103
e 112 58
e 112 91
e 112 131
e 113 83
e 113 126
e 113 144
e 114 36
e 114 93
e 114 159
e 115 29
e 115 85
e 115 155
e 116 35
e 116 89
e 116 115
e 117 10
e 117 59
e 117 92
e 118 32
e 118 75
e 118 126
e 119 22
e 119 35
e 119 116
e 120 20
e 120 42
e 120 115
e 121 11
e 121 23
e 121 156
e 122 77
e 122 112
e 122 157
e 123 26
e 123 132
e 123 139
e 124 8
e 124 142
e 124 144
e 125 54
e 125 85
e 125 152
e 126 28
e 126 122
e 126 151
e 127 6
e 127 27
e 127 52
e 128 4
e 128 85
e 128 153
e 129 49
e 129 67
e 129 91
e 130 23
e 130 95
e 130 155
e 131 75
e 131 112
e 131 124
e 132 55
e 132 81
e 132 117
e 133 39
e 133 75
e 133 79
e 134 25
e 134 30
e 134 148
e 135 39
e 135 114
e 135 145
e 136 70
e 136 104
e 136 155
e 137 66
e 137 132
e 137 145
e 138 95
e 138 103
e 138 123
e 139 72
e 139 136
e 139 153
e 140 28
e 140 45
e 140 77
e 141 20
e 141 87
e 141 97
e 142 3
e 142 104
e 142 148
e 143 43
e 143 57
e 143 128
e 144 54
e 144 81
e 144 124
e 145 20
e 145 22
e 145 68
e 146 5
e 146 38
e 146 112
e 147 26
e 147 126
e 147 133
e 148 17
e 148 51
e 148 79
e 149 13
e 149 109
e 149 142
e 150 35
e 150 83
e 150 132
e 151 52
e 151 62
e 151 136
e 152 55
e 152 60
e 152 148
e 153 71
e 153 111
e 153 134
e 154 29
e 154 31
e 154 64
e 155 43
e 155 56
e 155 86
e 156 23
e 156 138
e 156 140
e 157 15
e 157 115
e 157 133
e 158 12
e 158 42
e 158 57
e 159 48
e 159 82
e 159 128
e 160 20
e 160 44
e 160 136
